data/benchmarks/bayes/90-15-3-q.cnf
p cnf 1065 957
c weights 0.364261 0.635739 1 1 1 1 1 1 1 1 1 1 1 1 1 1 1 1 1 1 1 1 1 1 1 1 1 1 1 1 1 1 1 1 1 1 1 1 1 1 1 1 1 1 1 1 1 1 1 1 1 1 1 1 1 1 1 1 1 1 1 1 1 1 1 1 1 1 1 1 1 1 1 1 1 1 1 1 1 1 1 1 1 1 1 1 1 1 1 1 1 1 1 1 1 1 1 1 1 1 1 1 1 1 1 1 1 1 1 1 1 1 1 1 1 1 1 1 1 1 1 1 1 1 1 1 1 1 1 1 1 1 1 1 1 1 1 1 1 1 1 1 1 1 1 1 1 1 1 1 1 1 1 1 1 1 1 1 1 1 1 1 1 1 1 1 1 1 1 1 1 1 1 1 1 1 1 1 1 1 1 1 1 1 1 1 1 1 1 1 1 1 1 1 1 1 1 1 1 1 1 1 1 1 1 1 1 1 1 1 1 1 1 1 1 1 1 1 1 1 1 1 1 1 1 1 1 1 1 1 1 1 1 1 1 1 1 1 1 1 1 1 1 1 1 1 1 1 1 1 1 1 1 1 1 1 1 1 1 1 1 1 1 1 1 1 1 1 1 1 1 1 1 1 1 1 1 1 1 1 1 1 1 1 1 1 1 1 1 1 1 1 1 1 1 1 1 1 1 1 1 1 1 1 1 1 1 1 1 1 1 1 1 1 1 1 1 1 1 1 1 1 1 1 1 1 1 1 1 1 1 1 1 1 1 1 1 1 1 1 1 1 1 1 1 1 1 1 1 1 1 1 1 1 1 1 1 1 1 1 1 1 1 1 1 1 1 1 1 1 1 1 1 1 1 1 1 1 1 1 1 1 1 1 1 1 1 1 1 1 1 1 1 1 1 1 1 1 1 1 1 1 1 1 1 1 1 1 1 1 1 1 1 1 1 1 1 1 1 1 1 1 1 1 1 1 1 1 1 1 1 1 1 1 1 1 1 1 1 1 1 1 1 1 1 1 1 1 1 1 0.5 0.5 0.5 0.5 0.0251909 0.9748091 0.964191 0.03580899999999998 0.5 0.5 0.5 0.5 0.5 0.5 0.5 0.5 0.5 0.5 0.5 0.5 0.5 0.5 0.5 0.5 0.5 0.5 0.5 0.5 0.69311 0.30689 0.536359 0.46364099999999997 0.5 0.5 0.5 0.5 0.5 0.5 0.5 0.5 0.5 0.5 0.5 0.5 0.5 0.5 0.5 0.5 0.5 0.5 0.5 0.5 0.947672 0.05232800000000004 0.633331 0.366669 0.5 0.5 0.5 0.5 0.5 0.5 0.5 0.5 0.5 0.5 0.5 0.5 0.5 0.5 0.5 0.5 0.5 0.5 0.5 0.5 0.5 0.5 0.5 0.5 0.5 0.5 0.5 0.5 0.5 0.5 0.5 0.5 0.5 0.5 0.5 0.5 0.5 0.5 0.5 0.5 0.5 0.5 0.5 0.5 0.5 0.5 0.5 0.5 0.5 0.5 0.5 0.5 0.5 0.5 0.5 0.5 0.5 0.5 0.5 0.5 0.5 0.5 0.5 0.5 0.5 0.5 0.5 0.5 0.5 0.5 0.5 0.5 0.5 0.5 0.5 0.5 0.5 0.5 0.5 0.5 0.5 0.5 0.5 0.5 0.5 0.5 0.5 0.5 0.5 0.5 0.5 0.5 0.732784 0.267216 0.602572 0.397428 0.949789 0.050211000000000006 0.476982 0.523018 0.5 0.5 0.5 0.5 0.5 0.5 0.5 0.5 0.777217 0.22278299999999995 0.709138 0.29086199999999995 0.300499 0.6995009999999999 0.953634 0.04636600000000002 0.5 0.5 0.5 0.5 0.5 0.5 0.5 0.5 0.5 0.5 0.5 0.5 0.5 0.5 0.5 0.5 0.5 0.5 0.5 0.5 0.5 0.5 0.5 0.5 0.5 0.5 0.5 0.5 0.606218 0.39378199999999997 0.948973 0.051027000000000045 0.561628 0.438372 0.0504953 0.9495047 0.5 0.5 0.5 0.5 0.5 0.5 0.5 0.5 0.5 0.5 0.5 0.5 0.5 0.5 0.5 0.5 0.5 0.5 0.5 0.5 0.5 0.5 0.5 0.5 0.5 0.5 0.5 0.5 0.5 0.5 0.5 0.5 0.5 0.5 0.5 0.5 0.5 0.5 0.5 0.5 0.450538 0.549462 0.501822 0.498178 0.886666 0.11333400000000005 0.0121663 0.9878337 0.5 0.5 0.5 0.5 0.5 0.5 0.5 0.5 0.5 0.5 0.5 0.5 0.5 0.5 0.5 0.5 0.962043 0.03795700000000002 0.710166 0.28983400000000004 0.0551884 0.9448116 0.234081 0.765919 0.5 0.5 0.5 0.5 0.5 0.5 0.5 0.5 0.5 0.5 0.5 0.5 0.5 0.5 0.5 0.5 0.5 0.5 0.5 0.5 0.5 0.5 0.5 0.5 0.5 0.5 0.5 0.5 0.5 0.5 0.5 0.5 0.5 0.5 0.5 0.5 0.5 0.5 0.5 0.5 0.5 0.5 0.5 0.5 0.5 0.5 0.5 0.5 0.5 0.5 0.5 0.5 0.5 0.5 0.5 0.5 0.5 0.5 0.5 0.5 0.5 0.5 0.5 0.5 0.5 0.5 0.5 0.5 0.5 0.5 0.5 0.5 0.5 0.5 0.5 0.5 0.5 0.5 0.5 0.5 0.5 0.5 0.5 0.5 0.5 0.5 0.5 0.5 0.5 0.5 0.5 0.5 0.5 0.5 0.5 0.5 0.5 0.5 0.5 0.5 0.5 0.5 0.5 0.5 0.5 0.5 0.5 0.5 0.5 0.5 0.5 0.5 0.5 0.5 0.5 0.5 0.181233 0.818767 0.318926 0.681074 0.243261 0.756739 0.0755237 0.9244763 0.5 0.5 0.5 0.5 0.5 0.5 0.5 0.5 0.5 0.5 0.5 0.5 0.5 0.5 0.5 0.5 0.5 0.5 0.5 0.5 0.5 0.5 0.5 0.5 0.5 0.5 0.5 0.5 0.5 0.5 0.5 0.5 0.5 0.5 0.5 0.5 0.5 0.5 0.5 0.5 0.5 0.5 0.5 0.5 0.5 0.5 0.5 0.5 0.5 0.5 0.5 0.5 0.5 0.5 0.5 0.5 0.5 0.5 0.5 0.5 0.5 0.5 0.5 0.5 0.5 0.5 0.5 0.5 0.5 0.5 0.5 0.5 0.5 0.5 0.5 0.5 0.5 0.5 0.5 0.5 0.5 0.5 0.5 0.5 0.5 0.5 0.5 0.5 0.5 0.5 0.5 0.5 0.5 0.5 0.5 0.5 0.5 0.5 0.5 0.5 0.5 0.5 0.5 0.5 0.5 0.5 0.5 0.5 0.5 0.5 0.5 0.5 0.5 0.5 0.5 0.5 0.5 0.5 0.5 0.5 0.5 0.5 0.5 0.5 0.5 0.5 0.5 0.5 0.5 0.5 0.5 0.5 0.5 0.5 0.5 0.5 0.5 0.5 0.5 0.5 0.5 0.5 0.5 0.5 0.5 0.5 0.5 0.5 0.5 0.5 0.5 0.5 0.5 0.5 0.5 0.5 0.5 0.5 0.5 0.5 0.5 0.5 0.5 0.5 0.5 0.5 0.5 0.5 0.5 0.5 0.5 0.5 0.5 0.5 0.5 0.5 0.5 0.5 0.5 0.5 0.5 0.5 0.5 0.5 0.5 0.5 0.5 0.5 0.5 0.5 0.5 0.5 0.937747 0.062253 0.323986 0.676014 0.218068 0.781932 0.0439614 0.9560386 0.5 0.5 0.5 0.5 0.5 0.5 0.5 0.5 0.5 0.5 0.5 0.5 0.5 0.5 0.5 0.5 0.5 0.5 0.5 0.5 0.5 0.5 0.5 0.5 0.5 0.5 0.5 0.5 0.5 0.5 0.5 0.5 0.5 0.5 0.5 0.5 0.5 0.5 0.5 0.5 0.5 0.5 0.5 0.5 0.5 0.5 0.5 0.5 0.5 0.5 0.5 0.5 0.5 0.5 0.5 0.5 0.5 0.5 0.5 0.5 0.5 0.5 0.5 0.5 0.5 0.5 0.5 0.5 0.5 0.5 0.5 0.5 0.5 0.5 0.5 0.5 0.798688 0.20131200000000005 0.205192 0.794808 0.328903 0.671097 0.545415 0.454585 0.5 0.5 0.5 0.5 0.5 0.5 0.5 0.5 0.5 0.5 0.5 0.5 0.5 0.5 0.5 0.5 0.169233 0.830767 0.6996 0.3004 0.301338 0.698662 0.703237 0.296763 0.5 0.5 0.5 0.5 0.5 0.5 0.5 0.5 0.5 0.5 0.5 0.5 0.5 0.5 0.5 0.5 0.2266 0.7734 0.230237 0.769763 0.130671 0.869329 0.555502 0.44449799999999995 0.5 0.5 0.5 0.5 0.5 0.5 0.5 0.5 0.5 0.5 0.5 0.5 0.5 0.5 0.5 0.5 0.5 0.5 0.5 0.5 0.5 0.5 0.5 0.5 0.5 0.5 0.5 0.5 0.5 0.5 0.5 0.5 0.5 0.5 0.5 0.5 0.5 0.5 0.5 0.5 0.5 0.5 0.5 0.5 0.5 0.5 0.5 0.5 0.5 0.5 0.5 0.5 0.5 0.5 0.5 0.5 0.5 0.5 0.5 0.5 0.5 0.5 0.5 0.5 0.5 0.5 0.5 0.5 0.5 0.5 0.5 0.5 0.5 0.5 0.5 0.5 0.5 0.5 0.5 0.5 0.5 0.5 0.5 0.5 0.0349818 0.9650182 0.458121 0.541879 0.0917713 0.9082287 0.498415 0.501585 0.325125 0.674875 0.517351 0.482649 0.313895 0.686105 0.772868 0.227132 0.5 0.5 0.5 0.5 0.5 0.5 0.5 0.5 0.5 0.5 0.5 0.5 0.5 0.5 0.5 0.5 0.5 0.5 0.5 0.5 0.5 0.5 0.5 0.5 0.101173 0.898827 0.394957 0.605043 0.774318 0.22568200000000005 0.899321 0.10067899999999996 0.5 0.5 0.5 0.5 0.0013752 0.9986248 0.855178 0.144822 0.432718 0.5672820000000001 0.999557 0.0004429999999999712 0.5 0.5 0.5 0.5 0.5 0.5 0.5 0.5 0.5 0.5 0.5 0.5 0.5 0.5 0.5 0.5 0.5 0.5 0.5 0.5 0.5 0.5 0.5 0.5 0.5 0.5 0.5 0.5 0.5 0.5 0.5 0.5 0.5 0.5 0.5 0.5 0.5 0.5 0.5 0.5 0.5 0.5 0.5 0.5 0.5 0.5 0.5 0.5 0.5 0.5 0.5 0.5 0.5 0.5 0.5 0.5 0.5 0.5 0.5 0.5 0.5 0.5 0.5 0.5 0.5 0.5 0.5 0.5 0.5 0.5 0.5 0.5 0.5 0.5 0.5 0.5 0.5 0.5 0.5 0.5 0.5 0.5 0.5 0.5 0.5 0.5 0.5 0.5 0.5 0.5 0.5 0.5 0.5 0.5 0.5 0.5 0.5 0.5 0.5 0.5 0.5 0.5 0.5 0.5 0.5 0.5 0.5 0.5 0.5 0.5 0.5 0.5 0.5 0.5 0.5 0.5 0.5 0.5 0.5 0.5 0.5 0.5 0.5 0.5 0.5 0.5 0.5 0.5 0.5 0.5 0.5 0.5 0.10244 0.89756 0.959003 0.04099699999999995 0.320146 0.679854 0.987219 0.012781000000000042 0.5 0.5 0.5 0.5 0.5 0.5 0.5 0.5 0.5 0.5 0.5 0.5 0.5 0.5 0.5 0.5 0.5 0.5 0.5 0.5 0.5 0.5 0.5 0.5 0.5 0.5 0.5 0.5 0.5 0.5 0.5 0.5 0.205254 0.794746 0.0150083 0.9849917 0.25137 0.74863 0.757253 0.24274700000000005 0.35381 0.64619 0.716257 0.28374299999999997 0.296994 0.703006 0.341029 0.658971 0.5 0.5 0.5 0.5 0.5 0.5 0.5 0.5 0.0915853 0.9084147 0.928298 0.07170200000000004 0.343525 0.6564749999999999 0.526011 0.473989 0.5 0.5 0.5 0.5 0.5 0.5 0.5 0.5 0.5 0.5 0.5 0.5 0.5 0.5 0.5 0.5 0.5 0.5 0.5 0.5 0.5 0.5 0.5 0.5 0.5 0.5 0.5 0.5 0.5 0.5 0.5 0.5 0.5 0.5 0.5 0.5 0.5 0.5 0.5 0.5 0.5 0.5 0.5 0.5 0.5 0.5 0.5 0.5 0.5 0.5 0.5 0.5 0.5 0.5 0.5 0.5 0.5 0.5 0.5 0.5 0.5 0.5 0.5 0.5 0.5 0.5 0.5 0.5 0.743231 0.256769 0.703849 0.29615100000000005 0.622606 0.377394 0.211553 0.788447 0.615872 0.384128 0.0209038 0.9790962 0.437941 0.562059 0.569248 0.430752 0.5 0.5 0.5 0.5 0.5 0.5 0.5 0.5 0.5 0.5 0.5 0.5 0.5 0.5 0.5 0.5 0.5 0.5 0.5 0.5 0.5 0.5 0.5 0.5 0.5 0.5 0.5 0.5 0.5 0.5 0.5 0.5 0.744102 0.25589799999999996 0.516523 0.48347700000000005 0.692081 0.30791900000000005 0.366708 0.633292 0.5 0.5 0.5 0.5 0.5 0.5 0.5 0.5 0.5 0.5 0.5 0.5 0.5 0.5 0.5 0.5 0.5 0.5 0.5 0.5 0.5 0.5 0.5 0.5 0.5 0.5 0.5 0.5 0.5 0.5 0.5 0.5 0.5 0.5 0.5 0.5 0.299711 0.7002889999999999 0.942726 0.05727400000000005 0.665483 0.33451699999999995 0.816234 0.18376599999999998 0.5 0.5 0.5 0.5 0.5 0.5 0.5 0.5 0.5 0.5 0.5 0.5 0.5 0.5 0.5 0.5 0.5 0.5 0.5 0.5 0.5 0.5 0.5 0.5 0.5 0.5 0.5 0.5 0.5 0.5 0.5 0.5 0.772168 0.22783200000000003 0.336693 0.663307 0.471611 0.528389 0.726663 0.27333700000000005 0.5 0.5 0.5 0.5 0.5 0.5 0.5 0.5 0.5 0.5 0.5 0.5 0.5 0.5 0.5 0.5 0.5 0.5 0.5 0.5 0.5 0.5 0.5 0.5 0.5 0.5 0.5 0.5 0.5 0.5 0.5 0.5 0.5 0.5 0.5 0.5 0.5 0.5 0.5 0.5 0.5 0.5 0.5 0.5 0.5 0.5 0.5 0.5 0.5 0.5 0.5 0.5 0.5 0.5 0.5 0.5 0.5 0.5 0.5 0.5 0.5 0.5 0.5 0.5 0.5 0.5 0.5 0.5 0.5 0.5 0.5 0.5 0.5 0.5 0.5 0.5 0.5 0.5 0.5 0.5 0.5 0.5 0.5 0.5 0.5 0.5 0.5 0.5 0.5 0.5 0.5 0.5 0.5 0.5 0.5 0.5 0.5 0.5 0.5 0.5 0.235248 0.764752 0.644622 0.35537799999999997 0.797408 0.202592 0.0357458 0.9642542 0.5 0.5 0.5 0.5 0.5 0.5 0.5 0.5 0.5 0.5 0.5 0.5 0.5 0.5 0.5 0.5 0.5 0.5 0.5 0.5 0.5 0.5 0.5 0.5 0.5 0.5 0.5 0.5 0.5 0.5 0.5 0.5 0.5 0.5 0.5 0.5 0.5 0.5 0.5 0.5 0.5 0.5 0.5 0.5 0.5 0.5 0.5 0.5 0.5 0.5 0.5 0.5 0.5 0.5 0.5 0.5 0.5 0.5 0.5 0.5 0.5 0.5 0.5 0.5 0.5 0.5 0.5 0.5 0.5 0.5 0.5 0.5 0.5 0.5 0.5 0.5 0.5 0.5 0.5 0.5 0.5 0.5 0.5 0.5 0.5 0.5 0.5 0.5 0.5 0.5 0.5 0.5 0.5 0.5 0.5 0.5 0.5 0.5 0.5 0.5 0.5 0.5 0.5 0.5 0.5 0.5 0.5 0.5 0.5 0.5 0.5 0.5 0.5 0.5 0.5 0.5 0.5 0.5 0.5 0.5 0.5 0.5 0.5 0.5 0.5 0.5 0.5 0.5 0.5 0.5 0.5 0.5 0.5 0.5 0.5 0.5 0.5 0.5 0.5 0.5 0.5 0.5 0.5 0.5 0.5 0.5 0.5 0.5 0.5 0.5 0.5 0.5 0.5 0.5 0.5 0.5 0.5 0.5 0.5 0.5 0.5 0.5 0.5 0.5 0.877342 0.12265800000000004 0.0260523 0.9739477 0.5 0.5 0.5 0.5 0.5 0.5 0.5 0.5 0.5 0.5 0.5 0.5 0.5 0.5 0.5 0.5 0.13133 0.86867 0.558173 0.44182699999999997 0.130165 0.869835 0.800165 0.19983499999999998 0.5 0.5 0.5 0.5 0.5 0.5 0.5 0.5 0.5 0.5 0.5 0.5 0.5 0.5 0.5 0.5 0.5 0.5 0.5 0.5 0.5 0.5 0.5 0.5 0.477619 0.522381 0.898035 0.10196499999999997 0.00024049 0.99975951 0.285742 0.7142580000000001 0.5 0.5 0.5 0.5 0.5 0.5 0.5 0.5 0.5 0.5 0.5 0.5 0.5 0.5 0.5 0.5 0.470742 0.529258 0.214684 0.785316 0.676167 0.32383300000000004 0.534075 0.46592500000000003 0.5 0.5 0.5 0.5 0.5 0.5 0.5 0.5 0.5 0.5 0.5 0.5 0.5 0.5 0.5 0.5 0.5 0.5 0.5 0.5 0.5 0.5 0.5 0.5 0.5 0.5 0.5 0.5 0.5 0.5 0.5 0.5
-1 2 0
1 -2 0
-2 -228 3 0
-2 228 -3 0
2 -229 3 0
2 229 -3 0
-3 4 0
3 -4 0
-4 5 0
4 -5 0
-5 -6 0
5 6 0
-6 7 0
6 -7 0
-7 8 0
7 -8 0
-8 -240 9 0
-8 240 -9 0
8 -241 9 0
8 241 -9 0
-9 10 0
9 -10 0
-10 11 0
10 -11 0
-11 12 0
11 -12 0
-12 13 0
12 -13 0
-13 -14 0
13 14 0
-14 -252 15 0
-14 252 -15 0
14 -253 15 0
14 253 -15 0
-1 -16 0
1 16 0
-16 -2 -17 0
-16 2 -17 0
16 -2 -17 0
16 2 17 0
-17 -3 -18 0
-17 3 18 0
17 -3 -18 0
17 3 18 0
-18 -4 19 0
-18 4 -19 0
18 -4 19 0
18 4 19 0
-19 -5 20 0
-19 5 -20 0
19 -5 20 0
19 5 20 0
-20 -6 -21 0
-20 6 -21 0
20 -6 21 0
20 6 -21 0
-21 -7 -22 0
-21 7 22 0
21 -7 22 0
21 7 22 0
-22 -8 -23 0
-22 8 23 0
22 -8 -23 0
22 8 -23 0
-23 -9 24 0
-23 9 -24 0
23 -9 -24 0
23 9 24 0
-24 -10 -25 0
-24 10 -25 0
24 -10 25 0
24 10 25 0
-25 -11 -26 0
-25 11 26 0
25 -11 -26 0
25 11 26 0
-26 -12 -27 0
-26 12 27 0
26 -12 -27 0
26 12 27 0
-27 -13 -300 28 0
-27 -13 300 -28 0
-27 13 -301 28 0
-27 13 301 -28 0
27 -13 -302 28 0
27 -13 302 -28 0
27 13 -303 28 0
27 13 303 -28 0
-28 -14 29 0
-28 14 -29 0
28 -14 -29 0
28 14 -29 0
-29 -15 -308 30 0
-29 -15 308 -30 0
-29 15 -309 30 0
-29 15 309 -30 0
29 -15 -310 30 0
29 -15 310 -30 0
29 15 -311 30 0
29 15 311 -30 0
-16 31 0
16 -31 0
-31 -17 -32 0
-31 17 32 0
31 -17 32 0
31 17 -32 0
-32 -18 33 0
-32 18 -33 0
32 -18 -33 0
32 18 33 0
-33 -19 -34 0
-33 19 -34 0
33 -19 34 0
33 19 -34 0
-34 -20 -326 35 0
-34 -20 326 -35 0
-34 20 -327 35 0
-34 20 327 -35 0
34 -20 -328 35 0
34 -20 328 -35 0
34 20 -329 35 0
34 20 329 -35 0
-35 -21 36 0
-35 21 36 0
35 -21 36 0
35 21 -36 0
-36 -22 -37 0
-36 22 37 0
36 -22 -37 0
36 22 -37 0
-37 -23 38 0
-37 23 -38 0
37 -23 -38 0
37 23 -38 0
-38 -24 -39 0
-38 24 39 0
38 -24 39 0
38 24 -39 0
-39 -25 -40 0
-39 25 -40 0
39 -25 -40 0
39 25 40 0
-40 -26 -350 41 0
-40 -26 350 -41 0
-40 26 -351 41 0
-40 26 351 -41 0
40 -26 -352 41 0
40 -26 352 -41 0
40 26 -353 41 0
40 26 353 -41 0
-41 -27 42 0
-41 27 -42 0
41 -27 -42 0
41 27 -42 0
-42 -28 43 0
-42 28 -43 0
42 -28 -43 0
42 28 43 0
-43 -29 -362 44 0
-43 -29 362 -44 0
-43 29 -363 44 0
-43 29 363 -44 0
43 -29 -364 44 0
43 -29 364 -44 0
43 29 -365 44 0
43 29 365 -44 0
-44 -30 -45 0
-44 30 45 0
44 -30 -45 0
44 30 45 0
-31 46 0
31 -46 0
-46 -32 47 0
-46 32 47 0
46 -32 47 0
46 32 -47 0
-47 -33 -48 0
-47 33 48 0
47 -33 -48 0
47 33 48 0
-48 -34 -49 0
-48 34 49 0
48 -34 49 0
48 34 49 0
-49 -35 50 0
-49 35 -50 0
49 -35 50 0
49 35 -50 0
-50 -36 51 0
-50 36 -51 0
50 -36 51 0
50 36 -51 0
-51 -37 -52 0
-51 37 52 0
51 -37 -52 0
51 37 -52 0
-52 -38 -53 0
-52 38 53 0
52 -38 53 0
52 38 53 0
-53 -39 -54 0
-53 39 54 0
53 -39 -54 0
53 39 -54 0
-54 -40 55 0
-54 40 -55 0
54 -40 -55 0
54 40 -55 0
-55 -41 56 0
-55 41 -56 0
55 -41 56 0
55 41 -56 0
-56 -42 -57 0
-56 42 -57 0
56 -42 57 0
56 42 57 0
-57 -43 58 0
-57 43 -58 0
57 -43 -58 0
57 43 58 0
-58 -44 -59 0
-58 44 59 0
58 -44 59 0
58 44 -59 0
-59 -45 -424 60 0
-59 -45 424 -60 0
-59 45 -425 60 0
-59 45 425 -60 0
59 -45 -426 60 0
59 -45 426 -60 0
59 45 -427 60 0
59 45 427 -60 0
-46 -61 0
46 61 0
-61 -47 62 0
-61 47 -62 0
61 -47 -62 0
61 47 62 0
-62 -48 -63 0
-62 48 -63 0
62 -48 63 0
62 48 -63 0
-63 -49 64 0
-63 49 64 0
63 -49 64 0
63 49 -64 0
-64 -50 65 0
-64 50 -65 0
64 -50 -65 0
64 50 65 0
-65 -51 66 0
-65 51 66 0
65 -51 66 0
65 51 -66 0
-66 -52 67 0
-66 52 67 0
66 -52 67 0
66 52 -67 0
-67 -53 68 0
-67 53 68 0
67 -53 -68 0
67 53 68 0
-68 -54 69 0
-68 54 -69 0
68 -54 -69 0
68 54 -69 0
-69 -55 70 0
-69 55 70 0
69 -55 -70 0
69 55 70 0
-70 -56 71 0
-70 56 -71 0
70 -56 71 0
70 56 71 0
-71 -57 -72 0
-71 57 -72 0
71 -57 -72 0
71 57 72 0
-72 -58 73 0
-72 58 -73 0
72 -58 73 0
72 58 -73 0
-73 -59 -74 0
-73 59 74 0
73 -59 -74 0
73 59 -74 0
-74 -60 75 0
-74 60 -75 0
74 -60 -75 0
74 60 -75 0
-61 76 0
61 -76 0
-76 -62 77 0
-76 62 -77 0
76 -62 -77 0
76 62 77 0
-77 -63 78 0
-77 63 -78 0
77 -63 78 0
77 63 78 0
-78 -64 -79 0
-78 64 -79 0
78 -64 79 0
78 64 79 0
-79 -65 -80 0
-79 65 80 0
79 -65 -80 0
79 65 -80 0
-80 -66 -81 0
-80 66 81 0
80 -66 -81 0
80 66 -81 0
-81 -67 -82 0
-81 67 -82 0
81 -67 82 0
81 67 -82 0
-82 -68 -83 0
-82 68 -83 0
82 -68 83 0
82 68 83 0
-83 -69 -84 0
-83 69 84 0
83 -69 -84 0
83 69 84 0
-84 -70 -85 0
-84 70 85 0
84 -70 -85 0
84 70 -85 0
-85 -71 -524 86 0
-85 -71 524 -86 0
-85 71 -525 86 0
-85 71 525 -86 0
85 -71 -526 86 0
85 -71 526 -86 0
85 71 -527 86 0
85 71 527 -86 0
-86 -72 -87 0
-86 72 -87 0
86 -72 87 0
86 72 -87 0
-87 -73 -88 0
-87 73 88 0
87 -73 -88 0
87 73 88 0
-88 -74 89 0
-88 74 89 0
88 -74 89 0
88 74 -89 0
-89 -75 -90 0
-89 75 -90 0
89 -75 90 0
89 75 -90 0
-76 -91 0
76 91 0
-91 -77 -92 0
-91 77 -92 0
91 -77 92 0
91 77 -92 0
-92 -78 93 0
-92 78 93 0
92 -78 -93 0
92 78 -93 0
-93 -79 -94 0
-93 79 94 0
93 -79 -94 0
93 79 -94 0
-94 -80 95 0
-94 80 95 0
94 -80 95 0
94 80 -95 0
-95 -81 96 0
-95 81 -96 0
95 -81 96 0
95 81 96 0
-96 -82 -566 97 0
-96 -82 566 -97 0
-96 82 -567 97 0
-96 82 567 -97 0
96 -82 -568 97 0
96 -82 568 -97 0
96 82 -569 97 0
96 82 569 -97 0
-97 -83 98 0
-97 83 -98 0
97 -83 98 0
97 83 98 0
-98 -84 -99 0
-98 84 99 0
98 -84 99 0
98 84 99 0
-99 -85 -578 100 0
-99 -85 578 -100 0
-99 85 -579 100 0
-99 85 579 -100 0
99 -85 -580 100 0
99 -85 580 -100 0
99 85 -581 100 0
99 85 581 -100 0
-100 -86 101 0
-100 86 101 0
100 -86 -101 0
100 86 101 0
-101 -87 102 0
-101 87 -102 0
101 -87 -102 0
101 87 -102 0
-102 -88 -590 103 0
-102 -88 590 -103 0
-102 88 -591 103 0
-102 88 591 -103 0
102 -88 -592 103 0
102 -88 592 -103 0
102 88 -593 103 0
102 88 593 -103 0
-103 -89 104 0
-103 89 -104 0
103 -89 104 0
103 89 104 0
-104 -90 105 0
-104 90 105 0
104 -90 105 0
104 90 -105 0
-91 106 0
91 -106 0
-106 -92 107 0
-106 92 -107 0
106 -92 -107 0
106 92 107 0
-107 -93 108 0
-107 93 108 0
107 -93 108 0
107 93 -108 0
-108 -94 109 0
-108 94 -109 0
108 -94 109 0
108 94 109 0
-109 -95 -110 0
-109 95 -110 0
109 -95 110 0
109 95 110 0
-110 -96 -111 0
-110 96 -111 0
110 -96 111 0
110 96 -111 0
-111 -97 -112 0
-111 97 -112 0
111 -97 112 0
111 97 -112 0
-112 -98 113 0
-112 98 -113 0
112 -98 113 0
112 98 -113 0
-113 -99 -114 0
-113 99 114 0
113 -99 -114 0
113 99 114 0
-114 -100 -636 115 0
-114 -100 636 -115 0
-114 100 -637 115 0
-114 100 637 -115 0
114 -100 -638 115 0
114 -100 638 -115 0
114 100 -639 115 0
114 100 639 -115 0
-115 -101 -640 116 0
-115 -101 640 -116 0
-115 101 -641 116 0
-115 101 641 -116 0
115 -101 -642 116 0
115 -101 642 -116 0
115 101 -643 116 0
115 101 643 -116 0
-116 -102 -117 0
-116 102 -117 0
116 -102 117 0
116 102 -117 0
-117 -103 -118 0
-117 103 118 0
117 -103 -118 0
117 103 118 0
-118 -104 -119 0
-118 104 -119 0
118 -104 -119 0
118 104 119 0
-119 -105 -656 120 0
-119 -105 656 -120 0
-119 105 -657 120 0
-119 105 657 -120 0
119 -105 -658 120 0
119 -105 658 -120 0
119 105 -659 120 0
119 105 659 -120 0
-106 121 0
106 -121 0
-121 -107 -662 122 0
-121 -107 662 -122 0
-121 107 -663 122 0
-121 107 663 -122 0
121 -107 -664 122 0
121 -107 664 -122 0
121 107 -665 122 0
121 107 665 -122 0
-122 -108 -123 0
-122 108 123 0
122 -108 123 0
122 108 123 0
-123 -109 124 0
-123 109 -124 0
123 -109 -124 0
123 109 124 0
-124 -110 125 0
-124 110 125 0
124 -110 -125 0
124 110 -125 0
-125 -111 -126 0
-125 111 -126 0
125 -111 -126 0
125 111 126 0
-126 -112 -127 0
-126 112 -127 0
126 -112 127 0
126 112 -127 0
-127 -113 -128 0
-127 113 128 0
127 -113 128 0
127 113 -128 0
-128 -114 -129 0
-128 114 129 0
128 -114 129 0
128 114 129 0
-129 -115 -130 0
-129 115 130 0
129 -115 -130 0
129 115 -130 0
-130 -116 131 0
-130 116 131 0
130 -116 -131 0
130 116 -131 0
-131 -117 132 0
-131 117 -132 0
131 -117 132 0
131 117 -132 0
-132 -118 133 0
-132 118 -133 0
132 -118 -133 0
132 118 133 0
-133 -119 -134 0
-133 119 -134 0
133 -119 134 0
133 119 -134 0
-134 -120 135 0
-134 120 -135 0
134 -120 135 0
134 120 135 0
-121 136 0
121 -136 0
-136 -122 -137 0
-136 122 137 0
136 -122 -137 0
136 122 -137 0
-137 -123 -138 0
-137 123 -138 0
137 -123 -138 0
137 123 138 0
-138 -124 139 0
-138 124 -139 0
138 -124 139 0
138 124 -139 0
-139 -125 -732 140 0
-139 -125 732 -140 0
-139 125 -733 140 0
-139 125 733 -140 0
139 -125 -734 140 0
139 -125 734 -140 0
139 125 -735 140 0
139 125 735 -140 0
-140 -126 141 0
-140 126 141 0
140 -126 141 0
140 126 -141 0
-141 -127 -142 0
-141 127 -142 0
141 -127 -142 0
141 127 142 0
-142 -128 143 0
-142 128 -143 0
142 -128 -143 0
142 128 143 0
-143 -129 -144 0
-143 129 144 0
143 -129 144 0
143 129 -144 0
-144 -130 -752 145 0
-144 -130 752 -145 0
-144 130 -753 145 0
-144 130 753 -145 0
144 -130 -754 145 0
144 -130 754 -145 0
144 130 -755 145 0
144 130 755 -145 0
-145 -131 -756 146 0
-145 -131 756 -146 0
-145 131 -757 146 0
-145 131 757 -146 0
145 -131 -758 146 0
145 -131 758 -146 0
145 131 -759 146 0
145 131 759 -146 0
-146 -132 -147 0
-146 132 -147 0
146 -132 -147 0
146 132 147 0
-147 -133 -764 148 0
-147 -133 764 -148 0
-147 133 -765 148 0
-147 133 765 -148 0
147 -133 -766 148 0
147 -133 766 -148 0
147 133 -767 148 0
147 133 767 -148 0
-148 -134 149 0
-148 134 -149 0
148 -134 149 0
148 134 149 0
-149 -135 -150 0
-149 135 -150 0
149 -135 -150 0
149 135 150 0
-136 -151 0
136 151 0
-151 -137 152 0
-151 137 -152 0
151 -137 -152 0
151 137 -152 0
-152 -138 153 0
-152 138 -153 0
152 -138 153 0
152 138 -153 0
-153 -139 154 0
-153 139 154 0
153 -139 154 0
153 139 -154 0
-154 -140 155 0
-154 140 -155 0
154 -140 -155 0
154 140 -155 0
-155 -141 156 0
-155 141 -156 0
155 -141 -156 0
155 141 156 0
-156 -142 157 0
-156 142 -157 0
156 -142 -157 0
156 142 -157 0
-157 -143 -802 158 0
-157 -143 802 -158 0
-157 143 -803 158 0
-157 143 803 -158 0
157 -143 -804 158 0
157 -143 804 -158 0
157 143 -805 158 0
157 143 805 -158 0
-158 -144 -806 159 0
-158 -144 806 -159 0
-158 144 -807 159 0
-158 144 807 -159 0
158 -144 -808 159 0
158 -144 808 -159 0
158 144 -809 159 0
158 144 809 -159 0
-159 -145 -160 0
-159 145 160 0
159 -145 160 0
159 145 160 0
-160 -146 -161 0
-160 146 161 0
160 -146 -161 0
160 146 161 0
-161 -147 -162 0
-161 147 162 0
161 -147 162 0
161 147 162 0
-162 -148 -163 0
-162 148 -163 0
162 -148 163 0
162 148 -163 0
-163 -149 -826 164 0
-163 -149 826 -164 0
-163 149 -827 164 0
-163 149 827 -164 0
163 -149 -828 164 0
163 -149 828 -164 0
163 149 -829 164 0
163 149 829 -164 0
-164 -150 -165 0
-164 150 165 0
164 -150 -165 0
164 150 165 0
-151 -166 0
151 166 0
-166 -152 -167 0
-166 152 167 0
166 -152 167 0
166 152 167 0
-167 -153 -168 0
-167 153 168 0
167 -153 168 0
167 153 -168 0
-168 -154 169 0
-168 154 -169 0
168 -154 169 0
168 154 169 0
-169 -155 -848 170 0
-169 -155 848 -170 0
-169 155 -849 170 0
-169 155 849 -170 0
169 -155 -850 170 0
169 -155 850 -170 0
169 155 -851 170 0
169 155 851 -170 0
-170 -156 -171 0
-170 156 171 0
170 -156 -171 0
170 156 -171 0
-171 -157 -172 0
-171 157 172 0
171 -157 172 0
171 157 -172 0
-172 -158 173 0
-172 158 173 0
172 -158 -173 0
172 158 173 0
-173 -159 -174 0
-173 159 -174 0
173 -159 174 0
173 159 -174 0
-174 -160 -868 175 0
-174 -160 868 -175 0
-174 160 -869 175 0
-174 160 869 -175 0
174 -160 -870 175 0
174 -160 870 -175 0
174 160 -871 175 0
174 160 871 -175 0
-175 -161 -176 0
-175 161 -176 0
175 -161 -176 0
175 161 176 0
-176 -162 -177 0
-176 162 -177 0
176 -162 177 0
176 162 -177 0
-177 -163 178 0
-177 163 -178 0
177 -163 178 0
177 163 178 0
-178 -164 -179 0
-178 164 -179 0
178 -164 -179 0
178 164 179 0
-179 -165 -180 0
-179 165 180 0
179 -165 180 0
179 165 -180 0
-166 181 0
166 -181 0
-181 -167 -182 0
-181 167 182 0
181 -167 182 0
181 167 182 0
-182 -168 183 0
-182 168 183 0
182 -168 -183 0
182 168 -183 0
-183 -169 184 0
-183 169 184 0
183 -169 -184 0
183 169 184 0
-184 -170 -185 0
-184 170 -185 0
184 -170 185 0
184 170 185 0
-185 -171 186 0
-185 171 186 0
185 -171 -186 0
185 171 -186 0
-186 -172 -187 0
-186 172 187 0
186 -172 -187 0
186 172 187 0
-187 -173 -188 0
-187 173 -188 0
187 -173 -188 0
187 173 188 0
-188 -174 -922 189 0
-188 -174 922 -189 0
-188 174 -923 189 0
-188 174 923 -189 0
188 -174 -924 189 0
188 -174 924 -189 0
188 174 -925 189 0
188 174 925 -189 0
-189 -175 190 0
-189 175 190 0
189 -175 -190 0
189 175 190 0
-190 -176 -191 0
-190 176 -191 0
190 -176 -191 0
190 176 191 0
-191 -177 192 0
-191 177 -192 0
191 -177 -192 0
191 177 -192 0
-192 -178 -193 0
-192 178 -193 0
192 -178 193 0
192 178 193 0
-193 -179 -194 0
-193 179 194 0
193 -179 194 0
193 179 -194 0
-194 -180 195 0
-194 180 195 0
194 -180 -195 0
194 180 -195 0
-181 196 0
181 -196 0
-196 -182 -197 0
-196 182 197 0
196 -182 -197 0
196 182 -197 0
-197 -183 -198 0
-197 183 198 0
197 -183 -198 0
197 183 198 0
-198 -184 199 0
-198 184 -199 0
198 -184 -199 0
198 184 -199 0
-199 -185 200 0
-199 185 200 0
199 -185 -200 0
199 185 200 0
-200 -186 201 0
-200 186 201 0
200 -186 -201 0
200 186 -201 0
-201 -187 -202 0
-201 187 -202 0
201 -187 -202 0
201 187 202 0
-202 -188 203 0
-202 188 -203 0
202 -188 -203 0
202 188 203 0
-203 -189 -204 0
-203 189 -204 0
203 -189 204 0
203 189 -204 0
-204 -190 205 0
-204 190 -205 0
204 -190 205 0
204 190 205 0
-205 -191 -206 0
-205 191 -206 0
205 -191 206 0
205 191 -206 0
-206 -192 207 0
-206 192 207 0
206 -192 207 0
206 192 -207 0
-207 -193 208 0
-207 193 -208 0
207 -193 208 0
207 193 -208 0
-208 -194 -209 0
-208 194 -209 0
208 -194 -209 0
208 194 209 0
-209 -195 -210 0
-209 195 -210 0
209 -195 -210 0
209 195 210 0
-196 -1008 211 0
-196 1008 -211 0
196 -1009 211 0
196 1009 -211 0
-211 -197 212 0
-211 197 -212 0
211 -197 -212 0
211 197 212 0
-212 -198 -213 0
-212 198 213 0
212 -198 -213 0
212 198 -213 0
-213 -199 -1018 214 0
-213 -199 1018 -214 0
-213 199 -1019 214 0
-213 199 1019 -214 0
213 -199 -1020 214 0
213 -199 1020 -214 0
213 199 -1021 214 0
213 199 1021 -214 0
-214 -200 -215 0
-214 200 215 0
214 -200 -215 0
214 200 -215 0
-215 -201 216 0
-215 201 -216 0
215 -201 216 0
215 201 216 0
-216 -202 -217 0
-216 202 217 0
216 -202 -217 0
216 202 -217 0
-217 -203 -1034 218 0
-217 -203 1034 -218 0
-217 203 -1035 218 0
-217 203 1035 -218 0
217 -203 -1036 218 0
217 -203 1036 -218 0
217 203 -1037 218 0
217 203 1037 -218 0
-218 -204 219 0
-218 204 -219 0
218 -204 219 0
218 204 219 0
-219 -205 -220 0
-219 205 220 0
219 -205 220 0
219 205 -220 0
-220 -206 -1046 221 0
-220 -206 1046 -221 0
-220 206 -1047 221 0
-220 206 1047 -221 0
220 -206 -1048 221 0
220 -206 1048 -221 0
220 206 -1049 221 0
220 206 1049 -221 0
-221 -207 -222 0
-221 207 222 0
221 -207 222 0
221 207 -222 0
-222 -208 223 0
-222 208 223 0
222 -208 223 0
222 208 -223 0
-223 -209 224 0
-223 209 -224 0
223 -209 224 0
223 209 -224 0
-224 -210 225 0
-224 210 225 0
224 -210 225 0
224 210 -225 0
225 0
