data/benchmarks/bayes/90-15-3-q.gr
p tw 1065 956
166 181
198 213
15 30
67 68
159 807
47 62
99 100
59 73
114 637
97 566
107 122
139 154
8 9
159 160
221 1047
40 41
199 214
48 63
100 101
80 95
132 133
160 869
92 106
140 155
192 193
172 187
41 42
189 923
73 74
184 198
82 568
33 47
145 755
81 96
133 134
14 15
125 139
144 808
173 188
121 663
22 37
74 75
106 107
66 80
114 129
166 167
47 48
158 172
85 578
206 221
7 21
55 70
107 108
213 1020
99 113
147 162
199 200
48 49
80 81
191 205
40 54
140 141
133 767
169 851
132 146
29 310
81 82
73 87
145 759
173 174
59 427
22 23
165 179
14 28
114 115
158 805
206 207
130 752
55 56
198 212
159 806
47 61
147 148
60 427
114 636
207 208
139 153
174 925
88 593
21 36
199 213
144 753
80 94
160 868
113 128
172 186
189 922
205 220
54 69
145 754
181 182
146 161
14 252
173 187
143 802
121 662
175 871
158 809
87 102
13 302
214 215
15 253
179 194
220 1049
28 43
206 220
148 764
35 329
213 1019
88 103
120 135
21 22
8 241
97 569
105 659
147 161
180 195
29 44
71 526
61 76
113 114
121 136
100 580
133 766
153 168
205 206
2 17
54 55
120 656
62 77
94 109
146 147
59 426
154 169
220 1046
101 642
3 18
20 327
35 50
87 88
158 804
147 767
95 110
103 590
127 142
179 180
28 29
187 202
36 51
88 89
85 581
68 83
128 143
160 175
29 30
28 303
174 924
61 62
88 592
21 35
69 84
121 122
101 116
26 351
144 752
153 154
2 3
113 127
161 176
213 214
10 25
62 63
94 95
205 219
54 68
102 117
154 155
13 27
3 4
35 36
146 160
194 209
105 119
43 58
95 96
175 870
127 128
87 101
13 301
135 150
140 732
187 188
36 37
68 69
179 193
28 42
76 91
35 328
128 129
116 640
160 161
149 826
120 134
99 578
168 183
220 221
79 93
105 658
69 70
101 102
71 525
125 734
161 162
20 34
10 11
100 579
153 167
2 16
102 103
3 228
94 108
194 195
53 67
43 44
85 526
101 641
20 326
164 828
35 49
147 766
174 869
44 363
34 328
127 141
86 527
86 100
76 77
9 24
96 568
68 82
168 169
27 41
160 174
88 591
42 57
196 1009
101 115
26 350
188 925
134 149
60 74
30 311
75 90
102 592
16 31
41 353
108 123
9 10
13 300
103 593
157 802
49 64
186 200
15 309
109 124
170 848
203 1034
42 43
105 657
201 216
163 827
146 756
27 301
82 97
134 135
125 733
142 157
23 38
83 98
115 130
29 365
119 658
16 17
175 190
85 525
139 734
56 71
108 109
164 827
218 1036
193 207
116 131
147 765
174 868
115 642
44 362
34 327
49 50
140 735
208 223
57 72
109 110
167 182
96 567
89 104
116 643
149 164
201 202
50 51
30 45
82 83
196 1008
42 56
90 105
142 143
200 215
188 924
23 24
134 148
30 310
182 197
83 84
141 156
115 116
40 351
75 89
123 138
175 176
34 48
206 1048
24 25
102 591
56 57
199 1018
64 79
41 352
116 117
174 189
155 850
115 637
108 122
156 171
208 209
67 81
57 58
167 168
89 90
49 63
159 173
97 112
122 663
8 22
149 150
207 222
15 308
189 204
100 114
148 163
200 201
131 757
163 826
45 425
27 300
82 96
192 206
182 183
217 1035
41 55
214 1020
31 32
141 142
107 665
23 37
133 147
123 124
181 196
115 129
29 364
119 657
215 216
74 88
64 65
122 137
174 175
139 733
56 70
218 1035
156 157
15 29
5 6
115 641
34 326
107 121
97 98
221 1046
43 365
167 181
89 103
189 190
48 62
148 149
170 851
30 44
140 154
63 78
200 214
146 759
82 567
222 223
2 229
81 95
4 19
141 155
144 807
40 350
22 36
100 639
122 123
206 1047
114 128
37 52
174 188
155 849
55 69
115 636
211 1009
70 85
122 662
207 221
11 26
63 64
148 162
169 850
29 309
131 756
217 1034
45 424
4 5
214 1019
145 758
107 664
44 59
37 38
196 211
122 136
155 170
199 1021
96 111
18 33
70 71
60 426
130 131
43 364
188 203
11 12
170 185
129 144
163 164
82 566
44 45
145 753
203 218
162 177
144 806
100 638
144 159
196 197
103 118
155 156
158 808
137 138
15 252
130 755
195 210
96 97
220 1048
18 19
177 192
159 809
88 102
213 1018
136 151
188 189
114 639
8 240
97 568
180 194
221 1049
118 133
170 171
29 43
77 92
129 130
210 225
160 871
111 112
133 765
169 849
169 184
221 222
29 308
189 925
151 166
203 204
62 76
110 125
162 163
214 1018
145 757
59 425
154 168
144 145
202 217
3 17
51 66
103 104
143 805
121 665
158 803
95 109
85 86
143 158
155 169
187 201
177 178
36 50
85 580
136 137
148 767
96 110
128 142
60 425
118 119
28 302
77 78
174 923
188 202
69 83
169 170
129 143
161 175
151 152
10 24
110 111
120 659
102 116
145 752
202 203
25 40
51 52
162 176
194 208
43 57
175 869
143 144
103 117
158 807
135 149
17 32
130 754
195 209
220 1047
35 327
159 808
168 182
114 638
97 567
50 65
71 524
77 91
144 755
100 578
160 870
133 764
169 848
169 183
189 924
25 26
110 124
145 756
59 424
24 39
101 640
202 216
51 65
143 804
84 99
121 664
158 802
17 18
143 157
176 191
86 526
9 23
85 579
117 132
148 766
213 1021
149 829
99 581
28 301
174 922
209 224
58 73
88 590
150 165
31 46
120 658
91 106
183 198
84 85
32 47
158 159
20 329
175 868
217 218
124 139
176 177
158 806
103 592
5 20
17 31
65 80
117 118
35 326
109 123
157 172
209 210
6 21
58 59
105 656
201 215
191 192
50 64
98 113
125 732
144 754
26 353
142 156
190 205
39 54
91 92
224 225
83 97
131 146
183 184
32 33
175 189
85 524
24 38
72 87
124 125
14 253
164 826
143 803
84 98
116 130
147 764
164 179
216 217
65 66
13 303
157 805
86 525
140 734
176 190
198 199
208 222
57 71
157 158
96 566
6 7
117 131
148 765
116 642
149 163
139 140
149 828
197 212
203 1037
98 99
28 300
99 580
209 223
58 72
90 104
190 191
71 527
39 40
150 164
188 923
30 309
182 196
172 173
100 581
131 132
120 657
123 137
223 224
72 73
102 590
183 197
32 46
64 78
41 351
101 643
20 328
164 165
124 138
156 170
174 871
103 591
5 19
44 365
38 53
65 79
97 111
197 198
130 145
157 171
189 203
6 20
71 86
98 112
163 178
26 352
12 27
190 204
39 53
104 119
131 145
29 363
119 656
13 28
45 60
139 732
72 86
218 1034
105 120
137 152
38 39
115 640
9 241
164 178
157 804
46 61
86 524
140 733
78 93
138 153
15 311
116 641
19 34
71 72
149 827
170 850
99 579
197 211
203 1036
79 94
63 77
111 126
163 829
146 758
12 13
27 303
125 735
171 186
2 228
188 922
20 35
4 18
30 308
52 67
104 105
112 127
13 14
206 1046
3 229
204 219
53 68
37 51
85 527
85 100
41 350
164 829
145 160
155 848
46 47
26 41
78 79
44 364
34 329
174 870
38 52
211 1008
86 101
70 84
138 139
19 20
96 569
130 144
178 193
27 42
11 25
79 80
71 85
119 134
171 172
20 21
52 53
163 177
12 26
107 663
60 75
44 58
112 113
104 118
40 353
152 167
204 205
1 16
29 362
53 54
102 593
45 59
93 108
145 146
199 1020
26 27
137 151
185 200
115 639
9 240
18 32
86 87
157 803
78 92
43 363
126 141
178 179
27 28
122 665
138 152
186 201
170 184
15 310
170 849
19 33
203 1035
119 120
111 125
131 759
163 828
45 427
27 302
146 757
211 212
171 185
217 1037
203 217
52 66
152 153
1 2
112 126
212 213
100 637
144 158
93 94
119 659
204 218
85 99
139 735
185 186
218 1037
145 159
193 208
177 191
26 40
115 643
126 127
59 74
186 187
118 132
221 1048
218 219
178 192
210 224
92 107
119 133
219 220
184 199
82 569
33 48
107 662
144 809
125 140
40 352
152 166
34 49
206 1049
66 81
93 107
193 194
199 1019
158 173
7 22
59 60
155 851
115 638
185 199
60 424
67 82
99 114
43 362
126 140
159 174
122 664
191 206
8 23
40 55
92 93
100 115
132 147
184 185
29 311
131 758
33 34
45 426
217 1036
192 207
41 56
25 39
214 1021
73 88
125 126
133 148
165 180
34 35
100 636
14 29
66 67
74 89
106 121
130 753
7 8
